S = 4;
start = [|0,0,16,0,0,0,0,0,0,14,0,0,2,8,0,0|
0,0,0,0,0,0,0,0,0,3,0,0,13,0,0,0|
14,0,1,0,0,0,0,0,0,0,0,4,0,0,0,10|
0,12,0,0,0,15,14,2,0,0,0,0,0,4,0,0|
0,0,0,1,0,0,0,0,0,0,0,0,0,13,0,3|
0,0,0,5,0,0,7,10,0,0,0,14,0,0,0,0|
0,0,0,16,0,0,0,0,0,0,0,0,0,0,0,0|
0,0,0,0,0,0,0,0,0,1,0,0,5,0,0,0|
1,0,0,0,0,2,0,0,0,0,8,0,0,0,13,0|
0,0,0,13,0,5,0,0,9,0,0,6,0,0,0,0|
6,0,0,14,0,3,15,0,0,12,16,0,0,2,1,5|
0,0,0,0,0,0,0,0,0,0,14,2,10,16,0,9|
0,0,0,4,0,0,0,8,0,0,0,0,0,0,0,0|
0,0,0,15,0,0,5,7,0,0,0,0,0,6,0,13|
0,2,7,8,0,0,0,3,13,0,0,0,0,5,14,12|
9,3,0,0,0,0,0,12,0,0,0,0,0,0,0,8|];